;; sequence(s): A265188
;; terms: 0 1 5 6 10 11 12 16 17 21 22 23 27 28 32 33 34 38 39 43
;; small program: (loop((y - (x div 2)) div 2, x, 0) * (1 + 2)) + x
;; fast program: ((1 + 2) * ((2 + (x + x)) div (1 + (2 + 2)))) + x
(set-logic UFNIA)
(define-fun divf ((a Int) (b Int)) Int (ite (< 0 b) (div a b) (div (- a) (- b))))
(declare-fun f0 (Int Int) Int)
(declare-fun g0 (Int) Int)
(declare-fun h0 () Int)
(declare-fun u0 (Int Int) Int)
(declare-fun v0 (Int) Int)
(declare-fun small (Int) Int)
(declare-fun fast (Int) Int)
(assert (forall ((x Int) (y Int)) (= (f0 x y) (divf (- y (divf x 2)) 2))))
(assert (forall ((x Int)) (= (g0 x) x)))
(assert (= h0 0))
(assert (forall ((x Int) (y Int)) (= (u0 x y) (ite (<= x 0) y (f0 (u0 (- x 1) y) x)))))
(assert (forall ((x Int)) (= (v0 x) (u0 (g0 x) h0))))
(assert (forall ((x Int)) (= (small x) (+ (* (v0 x) (+ 1 2)) x))))
(assert (forall ((x Int)) (= (fast x) (+ (* (+ 1 2) (divf (+ 2 (+ x x)) (+ 1 (+ 2 2)))) x))))
(assert (exists ((c Int)) (and (>= c 0) (not (= (small c) (fast c))))))
(check-sat)
